# Solution for model GasLib-40
# Objective value = 1.0608853030403269e+01
loadshed[innode_1] 0
loadshed[innode_2] 0
loadshed[innode_3] 0
loadshed[innode_4] 0
loadshed[innode_5] 0
loadshed[innode_6] 0
loadshed[innode_7] 0
loadshed[innode_8] 0
loadshed[source_1] -2.8986714216437037e-01
loadshed[source_2] 6.0781185869183685e-02
loadshed[source_3] 2.9619225264372828e-01
loadshed[sink_1] 0
loadshed[sink_2] 0
loadshed[sink_3] 0
loadshed[sink_4] 0
loadshed[sink_5] 0
loadshed[sink_6] 0
loadshed[sink_7] 0
loadshed[sink_8] 0
loadshed[sink_9] 0
loadshed[sink_10] 0
loadshed[sink_11] 0
loadshed[sink_12] 6.4869419803739725e-01
loadshed[sink_13] 0
loadshed[sink_14] 0
loadshed[sink_15] 0
loadshed[sink_16] 0
loadshed[sink_17] 0
loadshed[sink_18] 0
loadshed[sink_19] 0
loadshed[sink_20] 0
loadshed[sink_21] 0
loadshed[sink_22] 0
loadshed[sink_23] 0
loadshed[sink_24] 0
loadshed[sink_25] 0
loadshed[sink_26] 0
loadshed[sink_27] 0
loadshed[sink_28] 0
loadshed[sink_29] 0
flow[source_1,sink_3] 2.0391545480119368e+02
flow[innode_1,sink_16] 1.6354166666666970e+01
flow[innode_6,sink_13] 3.2140043849619864e+00
flow[sink_13,sink_14] -1.3140162281704681e+01
flow[sink_14,sink_10] -2.9494328948371276e+01
flow[sink_25,sink_26] 1.7367725608318170e+02
flow[sink_26,sink_9] 1.2276297640797468e+02
flow[sink_9,sink_18] 106.408809741308
flow[sink_26,sink_4] 3.4560113008540370e+01
flow[sink_4,sink_20] -2.8318057553082213e+01
flow[sink_18,sink_6] 9.0054643074641334e+01
flow[sink_25,innode_8] -1.7120712146785729e+02
flow[sink_6,sink_7] 4.0992143074640808e+01
flow[sink_6,sink_22] 3.2708333333333641e+01
flow[sink_7,sink_24] 3.8453646969596733e+01
flow[sink_22,sink_1] 1.6354166666666970e+01
flow[sink_24,sink_21] 2.2099480302930068e+01
flow[sink_21,sink_12] 5.7453136362633987e+00
flow[sink_7,sink_5] -1.3815670561622184e+01
flow[sink_5,sink_17] -3.0169837228288884e+01
flow[sink_17,sink_4] -4.6524003894955555e+01
flow[sink_17,sink_8] 0
flow[sink_3,sink_23] 16.3541666666697
flow[sink_8,sink_20] -1.6354166666668334e+01
flow[sink_25,sink_20] 6.1026390886417374e+01
flow[sink_25,sink_15] -8.3064696553371348e+01
flow[sink_15,sink_29] -9.9418863220038020e+01
flow[sink_29,sink_28] 1.6354166666667879e+01
flow[sink_29,sink_2] 1.6354166666684250e+01
flow[sink_2,sink_15] 0
flow[sink_29,innode_7] -1.4848136322005578e+02
flow[innode_4,sink_19] 4.2801881790505419e+01
flow[sink_19,innode_3] 0
flow[innode_4,innode_5] 6.8463280491199612e+01
flow[sink_27,innode_5] -6.8463280491199612e+01
flow[sink_27,sink_19] 5.2109113824532947e+01
flow[sink_10,sink_11] 3.2708333333333641e+01
flow[sink_10,innode_2] -7.8556828948371745e+01
flow[sink_10,innode_3] 0
flow[innode_6,sink_25] -3.2140043849619864e+00
flow[sink_11,innode_1] 1.6354166666666970e+01
flow[sink_19,innode_2] 7.8556828948371745e+01
flow[source_3,innode_4] 1.1126516228170503e+02
flow[source_2,innode_7] 1.4848136322005578e+02
flow[sink_3,innode_8] 1.7120712146785729e+02
pressure[innode_1] 7.4975482540995543e+01
pressure[innode_2] 7.9279236708850235e+01
pressure[innode_3] 7.5127183848599088e+01
pressure[innode_4] 81.01325
pressure[innode_5] 8.0966157345598191e+01
pressure[innode_6] 7.3726346333051936e+01
pressure[innode_7] 81.01325
pressure[innode_8] 8.0331638533126849e+01
pressure[source_1] 81.01325
pressure[source_2] 81.01325
pressure[source_3] 81.01325
pressure[sink_1] 4.5790685603945249e+01
pressure[sink_2] 7.6627685710471980e+01
pressure[sink_3] 8.0331638533126849e+01
pressure[sink_4] 5.7100296968638453e+01
pressure[sink_5] 5.3074868148273573e+01
pressure[sink_6] 4.7891763214332620e+01
pressure[sink_7] 4.7329038800398280e+01
pressure[sink_8] 5.8038185918925606e+01
pressure[sink_9] 5.4146678201572186e+01
pressure[sink_10] 7.5127183848599088e+01
pressure[sink_11] 7.4975482540995543e+01
pressure[sink_12] 1.0132499999999998e+00
pressure[sink_13] 7.3708628063987675e+01
pressure[sink_14] 7.3732143503685123e+01
pressure[sink_15] 7.4129291051389785e+01
pressure[sink_16] 7.3953832706177863e+01
pressure[sink_17] 5.5322302947934041e+01
pressure[sink_18] 5.0296490312334463e+01
pressure[sink_19] 7.9279236708850235e+01
pressure[sink_20] 5.9177841342513894e+01
pressure[sink_21] 3.0577470340226505e+00
pressure[sink_22] 4.6854454746300256e+01
pressure[sink_23] 8.0166920521467063e+01
pressure[sink_24] 3.3024782455116020e+00
pressure[sink_25] 7.3726346333051936e+01
pressure[sink_26] 6.1494359182109747e+01
pressure[sink_27] 8.0398038624061087e+01
pressure[sink_28] 7.6746672935318458e+01
pressure[sink_29] 7.7041955208935633e+01
interdiction[source_1,sink_3] 0
interdiction[innode_1,sink_16] 0
interdiction[innode_6,sink_13] 0
interdiction[sink_13,sink_14] 0
interdiction[sink_14,sink_10] 0
interdiction[sink_25,sink_26] 0
interdiction[sink_26,sink_9] 0
interdiction[sink_9,sink_18] 0
interdiction[sink_26,sink_4] 0
interdiction[sink_4,sink_20] 0
interdiction[sink_18,sink_6] 0
interdiction[sink_25,innode_8] 0
interdiction[sink_6,sink_7] 0
interdiction[sink_6,sink_22] 0
interdiction[sink_7,sink_24] 0
interdiction[sink_22,sink_1] 0
interdiction[sink_24,sink_21] 0
interdiction[sink_21,sink_12] 0
interdiction[sink_7,sink_5] 0
interdiction[sink_5,sink_17] 0
interdiction[sink_17,sink_4] 0
interdiction[sink_17,sink_8] 1
interdiction[sink_3,sink_23] 0
interdiction[sink_8,sink_20] 0
interdiction[sink_25,sink_20] 0
interdiction[sink_25,sink_15] 0
interdiction[sink_15,sink_29] 0
interdiction[sink_29,sink_28] 0
interdiction[sink_29,sink_2] 0
interdiction[sink_2,sink_15] 1
interdiction[sink_29,innode_7] 0
interdiction[innode_4,sink_19] 0
interdiction[sink_19,innode_3] 1
interdiction[innode_4,innode_5] 0
interdiction[sink_27,innode_5] 0
interdiction[sink_27,sink_19] 0
interdiction[sink_10,sink_11] 0
interdiction[sink_10,innode_2] 0
interdiction[sink_10,innode_3] 0
interdiction[innode_6,sink_25] 0
interdiction[sink_11,innode_1] 0
interdiction[sink_19,innode_2] 0
interdiction[source_3,innode_4] 0
interdiction[source_2,innode_7] 0
interdiction[sink_3,innode_8] 0
WCcheckFlow[source_1,sink_3] 39
WCcheckFlow[innode_1,sink_16] 1
WCcheckFlow[innode_6,sink_13] 13
WCcheckFlow[sink_13,sink_14] 12
WCcheckFlow[sink_14,sink_10] 11
WCcheckFlow[sink_25,sink_26] 15
WCcheckFlow[sink_26,sink_9] 11
WCcheckFlow[sink_9,sink_18] 10
WCcheckFlow[sink_26,sink_4] 3
WCcheckFlow[sink_4,sink_20] 2
WCcheckFlow[sink_18,sink_6] 9
WCcheckFlow[sink_25,innode_8] -36
WCcheckFlow[sink_6,sink_7] 6
WCcheckFlow[sink_6,sink_22] 2
WCcheckFlow[sink_7,sink_24] 3
WCcheckFlow[sink_22,sink_1] 1
WCcheckFlow[sink_24,sink_21] 2
WCcheckFlow[sink_21,sink_12] 1
WCcheckFlow[sink_7,sink_5] 2
WCcheckFlow[sink_5,sink_17] 1
WCcheckFlow[sink_17,sink_4] 0
WCcheckFlow[sink_17,sink_8] 0
WCcheckFlow[sink_3,sink_23] 1
WCcheckFlow[sink_8,sink_20] -1
WCcheckFlow[sink_25,sink_20] 0
WCcheckFlow[sink_25,sink_15] 6
WCcheckFlow[sink_15,sink_29] 5
WCcheckFlow[sink_29,sink_28] 1
WCcheckFlow[sink_29,sink_2] 1
WCcheckFlow[sink_2,sink_15] 0
WCcheckFlow[sink_29,innode_7] 2
WCcheckFlow[innode_4,sink_19] -4
WCcheckFlow[sink_19,innode_3] 0
WCcheckFlow[innode_4,innode_5] 2
WCcheckFlow[sink_27,innode_5] -1
WCcheckFlow[sink_27,sink_19] 0
WCcheckFlow[sink_10,sink_11] 3
WCcheckFlow[sink_10,innode_2] 6
WCcheckFlow[sink_10,innode_3] 1
WCcheckFlow[innode_6,sink_25] -14
WCcheckFlow[sink_11,innode_1] 2
WCcheckFlow[sink_19,innode_2] -5
WCcheckFlow[source_3,innode_4] -1
WCcheckFlow[source_2,innode_7] -1
WCcheckFlow[sink_3,innode_8] 37
